n = 21;
m = 7;
value = [| 4, 5, 6, 7, 2, 1, 0, 4, 5, 6, 4, 5, 6, 7, 2, 1, 0, 4, 5, 6, 0
         | 0, 5, 8, 7, 3, 2, 1, 5, 4, 7, 5, 4, 5, 6, 3, 1, 0, 4, 6, 4, 0  
         | 5, 4, 5, 6, 3, 1, 0, 4, 6, 4, 0, 5, 8, 7, 3, 2, 1, 5, 4, 7, 0 
         | 5, 6, 7, 8, 4, 1, 0, 4, 4, 6, 5, 3, 6, 5, 2, 2, 1, 3, 7, 5, 1 
         | 5, 4, 5, 6, 3, 1, 0, 4, 6, 5, 1, 6, 9, 8, 4, 3, 2, 6, 5, 8, 0
         | 0, 5, 6, 7, 8, 4, 1, 0, 4, 4, 6, 5, 3, 6, 5, 2, 2, 1, 3, 7, 5 
         | 5, 5, 4, 5, 6, 3, 1, 0, 4, 6, 4, 0, 5, 8, 7, 3, 2, 1, 5, 4, 7
  |];
